c This Formular is generated by mcnf
c
c    horn? no 
c    forced? no 
c    mixed sat? no 
c    clause length = 3 
c
p cnf 20  91 
 -16 -7 -15 0
11 -16 -20 0
5 6 8 0
-10 4 -5 0
-5 -10 9 0
-14 -19 15 0
2 -7 6 0
1 18 -8 0
18 13 16 0
1 11 10 0
10 -2 -20 0
-14 -15 -3 0
2 17 -14 0
-2 3 -9 0
18 -6 -5 0
10 4 15 0
5 2 -3 0
-4 -3 17 0
13 4 -1 0
-8 14 -20 0
-4 -11 -7 0
%
0

49 34 36 52 58 22 6 13 36 18 73 67 1 23 97 58 3 4 38 14
